% Data file generated from RandomInstances/22_0.80_1.col DIMACS file
size = 22;

chi = 10;

adjacency = [|0,1,1,1,1,1,1,1,1,1,1,1,0,1,1,0,0,1,0,1,1,1,
|1,0,1,1,1,1,1,1,1,1,0,0,1,1,0,1,1,1,1,1,1,1,
|1,1,0,1,1,1,1,1,0,1,0,0,1,1,1,1,1,1,0,1,1,1,
|1,1,1,0,1,1,0,1,1,1,0,1,1,0,1,1,0,1,1,1,1,1,
|1,1,1,1,0,1,1,1,1,1,1,1,1,1,1,0,1,1,1,1,1,1,
|1,1,1,1,1,0,1,1,1,1,0,1,0,1,1,1,0,1,1,1,1,1,
|1,1,1,0,1,1,0,1,1,1,1,1,1,1,1,1,0,1,1,0,1,1,
|1,1,1,1,1,1,1,0,1,1,1,1,1,1,1,1,1,0,1,1,1,1,
|1,1,0,1,1,1,1,1,0,1,1,1,0,0,1,1,1,1,0,1,1,1,
|1,1,1,1,1,1,1,1,1,0,1,1,0,1,0,0,0,1,1,1,0,0,
|1,0,0,0,1,0,1,1,1,1,0,0,1,1,0,1,1,1,0,0,1,1,
|1,0,0,1,1,1,1,1,1,1,0,0,1,1,1,1,1,1,0,0,1,1,
|0,1,1,1,1,0,1,1,0,0,1,1,0,0,0,1,0,1,1,1,1,1,
|1,1,1,0,1,1,1,1,0,1,1,1,0,0,1,1,1,1,1,1,1,1,
|1,0,1,1,1,1,1,1,1,0,0,1,0,1,0,1,0,1,1,1,1,1,
|0,1,1,1,0,1,1,1,1,0,1,1,1,1,1,0,1,0,0,1,1,1,
|0,1,1,0,1,0,0,1,1,0,1,1,0,1,0,1,0,1,1,1,1,1,
|1,1,1,1,1,1,1,0,1,1,1,1,1,1,1,0,1,0,0,1,1,0,
|0,1,0,1,1,1,1,1,0,1,0,0,1,1,1,0,1,0,0,1,1,1,
|1,1,1,1,1,1,0,1,1,1,0,0,1,1,1,1,1,1,1,0,0,1,
|1,1,1,1,1,1,1,1,1,0,1,1,1,1,1,1,1,1,1,0,0,1,
|1,1,1,1,1,1,1,1,1,0,1,1,1,1,1,1,1,0,1,1,1,0,
|];